35
1 135 1992
2 1158 103
3 2280 669
4 2176 796
5 787 2721
6 914 308
7 474 2719
8 2250 901
9 627 1659
10 2518 1559
11 1557 2658
12 478 2183
13 2794 2281
14 467 1691
15 2040 513
16 2243 1648
17 379 1241
18 2038 64
19 269 2524
20 2765 1096
21 1329 173
22 2978 1033
23 1228 2104
24 2003 996
25 461 1043
26 1211 524
27 2374 2741
28 554 1215
29 1491 1213
30 2867 2541
31 2707 686
32 1975 76
33 933 1610
34 577 2395
35 2333 589
